20191226 125301.19 83402.51
20171231 125300.00 38800.00
20170929 125301.19 38767.96
20161231 125301.19 29702.83
20161226 125301.19 29702.83
20160630 38768.36 29702.83
20151231 38768.36 29702.83
20150630 38768.36 29702.83
